p cnf 280 950
c p weight 112 -1 0
c p weight -112 1 0
c p weight 114 6.12323399573676603586882014729198302312846062338790031898128063403419218957424163818359375E-17 0
c p weight -114 1 0
c p weight 115 1 0
c p weight -115 1 0
c p weight 116 -1 0
c p weight -116 1 0
c p weight 118 -1 0
c p weight -118 1 0
c p weight 121 -1 0
c p weight -121 1 0
c p weight 124 -1 0
c p weight -124 1 0
c p weight 127 -1 0
c p weight -127 1 0
c p weight 130 -1 0
c p weight -130 1 0
c p weight 133 -1 0
c p weight -133 1 0
c p weight 136 -1 0
c p weight -136 1 0
c p weight 139 -1 0
c p weight -139 1 0
c p weight 142 -1 0
c p weight -142 1 0
c p weight 145 -1 0
c p weight -145 1 0
c p weight 148 -1 0
c p weight -148 1 0
c p weight 151 -1 0
c p weight -151 1 0
c p weight 154 -1 0
c p weight -154 1 0
c p weight 157 -1 0
c p weight -157 1 0
c p weight 160 -1 0
c p weight -160 1 0
c p weight 163 -1 0
c p weight -163 1 0
c p weight 166 -1 0
c p weight -166 1 0
c p weight 169 -1 0
c p weight -169 1 0
c p weight 172 -1 0
c p weight -172 1 0
c p weight 175 -1 0
c p weight -175 1 0
c p weight 178 -1 0
c p weight -178 1 0
c p weight 181 -1 0
c p weight -181 1 0
c p weight 184 -1 0
c p weight -184 1 0
c p weight 187 -1 0
c p weight -187 1 0
c p weight 190 -1 0
c p weight -190 1 0
c p weight 193 -1 0
c p weight -193 1 0
c p weight 196 -1 0
c p weight -196 1 0
c p weight 199 -1 0
c p weight -199 1 0
c p weight 202 -1 0
c p weight -202 1 0
c p weight 205 -1 0
c p weight -205 1 0
c p weight 208 -1 0
c p weight -208 1 0
c p weight 211 -1 0
c p weight -211 1 0
c p weight 214 -1 0
c p weight -214 1 0
c p weight 217 -1 0
c p weight -217 1 0
c p weight 220 -1 0
c p weight -220 1 0
c p weight 223 -1 0
c p weight -223 1 0
c p weight 226 -1 0
c p weight -226 1 0
c p weight 229 -1 0
c p weight -229 1 0
c p weight 232 -1 0
c p weight -232 1 0
c p weight 235 -1 0
c p weight -235 1 0
c p weight 238 -1 0
c p weight -238 1 0
c p weight 241 -1 0
c p weight -241 1 0
c p weight 244 -1 0
c p weight -244 1 0
c p weight 247 -1 0
c p weight -247 1 0
c p weight 250 -1 0
c p weight -250 1 0
c p weight 253 -1 0
c p weight -253 1 0
c p weight 256 -1 0
c p weight -256 1 0
c p weight 259 -1 0
c p weight -259 1 0
c p weight 262 -1 0
c p weight -262 1 0
c p weight 265 -1 0
c p weight -265 1 0
c p weight 268 -1 0
c p weight -268 1 0
c p weight 271 -1 0
c p weight -271 1 0
c p weight 274 -1 0
c p weight -274 1 0
c p weight 277 -1 0
c p weight -277 1 0
c p weight 280 -1 0
c p weight -280 1 0
-109 0
-107 0
-105 0
-103 0
-101 0
-99 0
-97 0
-95 0
-93 0
-91 0
-89 0
-87 0
-85 0
-83 0
-81 0
-79 0
-77 0
-75 0
-73 0
-71 0
-69 0
-67 0
-65 0
-63 0
-61 0
-59 0
-57 0
-55 0
-53 0
-51 0
-49 0
-47 0
-45 0
-43 0
-41 0
-39 0
-37 0
-35 0
-33 0
-31 0
-29 0
-27 0
-25 0
-23 0
-21 0
-19 0
-17 0
-15 0
-13 0
-11 0
-9 0
-7 0
-5 0
-3 0
-1 0
111 109 -110 0
111 -109 110 0
-111 109 110 0
-111 -109 -110 0
-112 109 0
-112 110 0
112 -109 -110 0
113 -109 111 0
-113 109 111 0
-114 111 0
113 -114 -109 0
-113 -114 109 0
113 114 109 -111 0
-113 114 -109 -111 0
-115 111 0
113 -115 109 0
-113 -115 -109 0
113 115 -109 -111 0
-113 115 109 -111 0
-116 113 0
-116 111 0
-116 -109 0
116 -113 109 -111 0
117 113 -111 0
117 -113 111 0
-117 113 111 0
-117 -113 -111 0
-118 113 0
-118 111 0
118 -113 -111 0
119 113 -107 0
119 -113 107 0
-119 113 107 0
-119 -113 -107 0
120 117 -108 0
120 -117 108 0
-120 117 108 0
-120 -117 -108 0
-121 113 0
-121 108 0
-121 107 -117 0
-121 -107 117 0
121 -113 107 117 -108 0
121 -113 -107 -117 -108 0
122 119 -105 0
122 -119 105 0
-122 119 105 0
-122 -119 -105 0
123 108 -106 0
123 -108 106 0
-123 108 106 0
-123 -108 -106 0
-124 119 0
-124 106 0
-124 105 -108 0
-124 -105 108 0
124 -119 105 108 -106 0
124 -119 -105 -108 -106 0
125 122 -103 0
125 -122 103 0
-125 122 103 0
-125 -122 -103 0
126 106 -104 0
126 -106 104 0
-126 106 104 0
-126 -106 -104 0
-127 122 0
-127 104 0
-127 103 -106 0
-127 -103 106 0
127 -122 103 106 -104 0
127 -122 -103 -106 -104 0
128 125 -101 0
128 -125 101 0
-128 125 101 0
-128 -125 -101 0
129 104 -102 0
129 -104 102 0
-129 104 102 0
-129 -104 -102 0
-130 125 0
-130 102 0
-130 101 -104 0
-130 -101 104 0
130 -125 101 104 -102 0
130 -125 -101 -104 -102 0
131 128 -99 0
131 -128 99 0
-131 128 99 0
-131 -128 -99 0
132 102 -100 0
132 -102 100 0
-132 102 100 0
-132 -102 -100 0
-133 128 0
-133 100 0
-133 99 -102 0
-133 -99 102 0
133 -128 99 102 -100 0
133 -128 -99 -102 -100 0
134 131 -97 0
134 -131 97 0
-134 131 97 0
-134 -131 -97 0
135 100 -98 0
135 -100 98 0
-135 100 98 0
-135 -100 -98 0
-136 131 0
-136 98 0
-136 97 -100 0
-136 -97 100 0
136 -131 97 100 -98 0
136 -131 -97 -100 -98 0
137 134 -95 0
137 -134 95 0
-137 134 95 0
-137 -134 -95 0
138 98 -96 0
138 -98 96 0
-138 98 96 0
-138 -98 -96 0
-139 134 0
-139 96 0
-139 95 -98 0
-139 -95 98 0
139 -134 95 98 -96 0
139 -134 -95 -98 -96 0
140 137 -93 0
140 -137 93 0
-140 137 93 0
-140 -137 -93 0
141 96 -94 0
141 -96 94 0
-141 96 94 0
-141 -96 -94 0
-142 137 0
-142 94 0
-142 93 -96 0
-142 -93 96 0
142 -137 93 96 -94 0
142 -137 -93 -96 -94 0
143 140 -91 0
143 -140 91 0
-143 140 91 0
-143 -140 -91 0
144 94 -92 0
144 -94 92 0
-144 94 92 0
-144 -94 -92 0
-145 140 0
-145 92 0
-145 91 -94 0
-145 -91 94 0
145 -140 91 94 -92 0
145 -140 -91 -94 -92 0
146 143 -89 0
146 -143 89 0
-146 143 89 0
-146 -143 -89 0
147 92 -90 0
147 -92 90 0
-147 92 90 0
-147 -92 -90 0
-148 143 0
-148 90 0
-148 89 -92 0
-148 -89 92 0
148 -143 89 92 -90 0
148 -143 -89 -92 -90 0
149 146 -87 0
149 -146 87 0
-149 146 87 0
-149 -146 -87 0
150 90 -88 0
150 -90 88 0
-150 90 88 0
-150 -90 -88 0
-151 146 0
-151 88 0
-151 87 -90 0
-151 -87 90 0
151 -146 87 90 -88 0
151 -146 -87 -90 -88 0
152 149 -85 0
152 -149 85 0
-152 149 85 0
-152 -149 -85 0
153 88 -86 0
153 -88 86 0
-153 88 86 0
-153 -88 -86 0
-154 149 0
-154 86 0
-154 85 -88 0
-154 -85 88 0
154 -149 85 88 -86 0
154 -149 -85 -88 -86 0
155 152 -83 0
155 -152 83 0
-155 152 83 0
-155 -152 -83 0
156 86 -84 0
156 -86 84 0
-156 86 84 0
-156 -86 -84 0
-157 152 0
-157 84 0
-157 83 -86 0
-157 -83 86 0
157 -152 83 86 -84 0
157 -152 -83 -86 -84 0
158 155 -81 0
158 -155 81 0
-158 155 81 0
-158 -155 -81 0
159 84 -82 0
159 -84 82 0
-159 84 82 0
-159 -84 -82 0
-160 155 0
-160 82 0
-160 81 -84 0
-160 -81 84 0
160 -155 81 84 -82 0
160 -155 -81 -84 -82 0
161 158 -79 0
161 -158 79 0
-161 158 79 0
-161 -158 -79 0
162 82 -80 0
162 -82 80 0
-162 82 80 0
-162 -82 -80 0
-163 158 0
-163 80 0
-163 79 -82 0
-163 -79 82 0
163 -158 79 82 -80 0
163 -158 -79 -82 -80 0
164 161 -77 0
164 -161 77 0
-164 161 77 0
-164 -161 -77 0
165 80 -78 0
165 -80 78 0
-165 80 78 0
-165 -80 -78 0
-166 161 0
-166 78 0
-166 77 -80 0
-166 -77 80 0
166 -161 77 80 -78 0
166 -161 -77 -80 -78 0
167 164 -75 0
167 -164 75 0
-167 164 75 0
-167 -164 -75 0
168 78 -76 0
168 -78 76 0
-168 78 76 0
-168 -78 -76 0
-169 164 0
-169 76 0
-169 75 -78 0
-169 -75 78 0
169 -164 75 78 -76 0
169 -164 -75 -78 -76 0
170 167 -73 0
170 -167 73 0
-170 167 73 0
-170 -167 -73 0
171 76 -74 0
171 -76 74 0
-171 76 74 0
-171 -76 -74 0
-172 167 0
-172 74 0
-172 73 -76 0
-172 -73 76 0
172 -167 73 76 -74 0
172 -167 -73 -76 -74 0
173 170 -71 0
173 -170 71 0
-173 170 71 0
-173 -170 -71 0
174 74 -72 0
174 -74 72 0
-174 74 72 0
-174 -74 -72 0
-175 170 0
-175 72 0
-175 71 -74 0
-175 -71 74 0
175 -170 71 74 -72 0
175 -170 -71 -74 -72 0
176 173 -69 0
176 -173 69 0
-176 173 69 0
-176 -173 -69 0
177 72 -70 0
177 -72 70 0
-177 72 70 0
-177 -72 -70 0
-178 173 0
-178 70 0
-178 69 -72 0
-178 -69 72 0
178 -173 69 72 -70 0
178 -173 -69 -72 -70 0
179 176 -67 0
179 -176 67 0
-179 176 67 0
-179 -176 -67 0
180 70 -68 0
180 -70 68 0
-180 70 68 0
-180 -70 -68 0
-181 176 0
-181 68 0
-181 67 -70 0
-181 -67 70 0
181 -176 67 70 -68 0
181 -176 -67 -70 -68 0
182 179 -65 0
182 -179 65 0
-182 179 65 0
-182 -179 -65 0
183 68 -66 0
183 -68 66 0
-183 68 66 0
-183 -68 -66 0
-184 179 0
-184 66 0
-184 65 -68 0
-184 -65 68 0
184 -179 65 68 -66 0
184 -179 -65 -68 -66 0
185 182 -63 0
185 -182 63 0
-185 182 63 0
-185 -182 -63 0
186 66 -64 0
186 -66 64 0
-186 66 64 0
-186 -66 -64 0
-187 182 0
-187 64 0
-187 63 -66 0
-187 -63 66 0
187 -182 63 66 -64 0
187 -182 -63 -66 -64 0
188 185 -61 0
188 -185 61 0
-188 185 61 0
-188 -185 -61 0
189 64 -62 0
189 -64 62 0
-189 64 62 0
-189 -64 -62 0
-190 185 0
-190 62 0
-190 61 -64 0
-190 -61 64 0
190 -185 61 64 -62 0
190 -185 -61 -64 -62 0
191 188 -59 0
191 -188 59 0
-191 188 59 0
-191 -188 -59 0
192 62 -60 0
192 -62 60 0
-192 62 60 0
-192 -62 -60 0
-193 188 0
-193 60 0
-193 59 -62 0
-193 -59 62 0
193 -188 59 62 -60 0
193 -188 -59 -62 -60 0
194 191 -57 0
194 -191 57 0
-194 191 57 0
-194 -191 -57 0
195 60 -58 0
195 -60 58 0
-195 60 58 0
-195 -60 -58 0
-196 191 0
-196 58 0
-196 57 -60 0
-196 -57 60 0
196 -191 57 60 -58 0
196 -191 -57 -60 -58 0
197 194 -55 0
197 -194 55 0
-197 194 55 0
-197 -194 -55 0
198 58 -56 0
198 -58 56 0
-198 58 56 0
-198 -58 -56 0
-199 194 0
-199 56 0
-199 55 -58 0
-199 -55 58 0
199 -194 55 58 -56 0
199 -194 -55 -58 -56 0
200 197 -53 0
200 -197 53 0
-200 197 53 0
-200 -197 -53 0
201 56 -54 0
201 -56 54 0
-201 56 54 0
-201 -56 -54 0
-202 197 0
-202 54 0
-202 53 -56 0
-202 -53 56 0
202 -197 53 56 -54 0
202 -197 -53 -56 -54 0
203 200 -51 0
203 -200 51 0
-203 200 51 0
-203 -200 -51 0
204 54 -52 0
204 -54 52 0
-204 54 52 0
-204 -54 -52 0
-205 200 0
-205 52 0
-205 51 -54 0
-205 -51 54 0
205 -200 51 54 -52 0
205 -200 -51 -54 -52 0
206 203 -49 0
206 -203 49 0
-206 203 49 0
-206 -203 -49 0
207 52 -50 0
207 -52 50 0
-207 52 50 0
-207 -52 -50 0
-208 203 0
-208 50 0
-208 49 -52 0
-208 -49 52 0
208 -203 49 52 -50 0
208 -203 -49 -52 -50 0
209 206 -47 0
209 -206 47 0
-209 206 47 0
-209 -206 -47 0
210 50 -48 0
210 -50 48 0
-210 50 48 0
-210 -50 -48 0
-211 206 0
-211 48 0
-211 47 -50 0
-211 -47 50 0
211 -206 47 50 -48 0
211 -206 -47 -50 -48 0
212 209 -45 0
212 -209 45 0
-212 209 45 0
-212 -209 -45 0
213 48 -46 0
213 -48 46 0
-213 48 46 0
-213 -48 -46 0
-214 209 0
-214 46 0
-214 45 -48 0
-214 -45 48 0
214 -209 45 48 -46 0
214 -209 -45 -48 -46 0
215 212 -43 0
215 -212 43 0
-215 212 43 0
-215 -212 -43 0
216 46 -44 0
216 -46 44 0
-216 46 44 0
-216 -46 -44 0
-217 212 0
-217 44 0
-217 43 -46 0
-217 -43 46 0
217 -212 43 46 -44 0
217 -212 -43 -46 -44 0
218 215 -41 0
218 -215 41 0
-218 215 41 0
-218 -215 -41 0
219 44 -42 0
219 -44 42 0
-219 44 42 0
-219 -44 -42 0
-220 215 0
-220 42 0
-220 41 -44 0
-220 -41 44 0
220 -215 41 44 -42 0
220 -215 -41 -44 -42 0
221 218 -39 0
221 -218 39 0
-221 218 39 0
-221 -218 -39 0
222 42 -40 0
222 -42 40 0
-222 42 40 0
-222 -42 -40 0
-223 218 0
-223 40 0
-223 39 -42 0
-223 -39 42 0
223 -218 39 42 -40 0
223 -218 -39 -42 -40 0
224 221 -37 0
224 -221 37 0
-224 221 37 0
-224 -221 -37 0
225 40 -38 0
225 -40 38 0
-225 40 38 0
-225 -40 -38 0
-226 221 0
-226 38 0
-226 37 -40 0
-226 -37 40 0
226 -221 37 40 -38 0
226 -221 -37 -40 -38 0
227 224 -35 0
227 -224 35 0
-227 224 35 0
-227 -224 -35 0
228 38 -36 0
228 -38 36 0
-228 38 36 0
-228 -38 -36 0
-229 224 0
-229 36 0
-229 35 -38 0
-229 -35 38 0
229 -224 35 38 -36 0
229 -224 -35 -38 -36 0
230 227 -33 0
230 -227 33 0
-230 227 33 0
-230 -227 -33 0
231 36 -34 0
231 -36 34 0
-231 36 34 0
-231 -36 -34 0
-232 227 0
-232 34 0
-232 33 -36 0
-232 -33 36 0
232 -227 33 36 -34 0
232 -227 -33 -36 -34 0
233 230 -31 0
233 -230 31 0
-233 230 31 0
-233 -230 -31 0
234 34 -32 0
234 -34 32 0
-234 34 32 0
-234 -34 -32 0
-235 230 0
-235 32 0
-235 31 -34 0
-235 -31 34 0
235 -230 31 34 -32 0
235 -230 -31 -34 -32 0
236 233 -29 0
236 -233 29 0
-236 233 29 0
-236 -233 -29 0
237 32 -30 0
237 -32 30 0
-237 32 30 0
-237 -32 -30 0
-238 233 0
-238 30 0
-238 29 -32 0
-238 -29 32 0
238 -233 29 32 -30 0
238 -233 -29 -32 -30 0
239 236 -27 0
239 -236 27 0
-239 236 27 0
-239 -236 -27 0
240 30 -28 0
240 -30 28 0
-240 30 28 0
-240 -30 -28 0
-241 236 0
-241 28 0
-241 27 -30 0
-241 -27 30 0
241 -236 27 30 -28 0
241 -236 -27 -30 -28 0
242 239 -25 0
242 -239 25 0
-242 239 25 0
-242 -239 -25 0
243 28 -26 0
243 -28 26 0
-243 28 26 0
-243 -28 -26 0
-244 239 0
-244 26 0
-244 25 -28 0
-244 -25 28 0
244 -239 25 28 -26 0
244 -239 -25 -28 -26 0
245 242 -23 0
245 -242 23 0
-245 242 23 0
-245 -242 -23 0
246 26 -24 0
246 -26 24 0
-246 26 24 0
-246 -26 -24 0
-247 242 0
-247 24 0
-247 23 -26 0
-247 -23 26 0
247 -242 23 26 -24 0
247 -242 -23 -26 -24 0
248 245 -21 0
248 -245 21 0
-248 245 21 0
-248 -245 -21 0
249 24 -22 0
249 -24 22 0
-249 24 22 0
-249 -24 -22 0
-250 245 0
-250 22 0
-250 21 -24 0
-250 -21 24 0
250 -245 21 24 -22 0
250 -245 -21 -24 -22 0
251 248 -19 0
251 -248 19 0
-251 248 19 0
-251 -248 -19 0
252 22 -20 0
252 -22 20 0
-252 22 20 0
-252 -22 -20 0
-253 248 0
-253 20 0
-253 19 -22 0
-253 -19 22 0
253 -248 19 22 -20 0
253 -248 -19 -22 -20 0
254 251 -17 0
254 -251 17 0
-254 251 17 0
-254 -251 -17 0
255 20 -18 0
255 -20 18 0
-255 20 18 0
-255 -20 -18 0
-256 251 0
-256 18 0
-256 17 -20 0
-256 -17 20 0
256 -251 17 20 -18 0
256 -251 -17 -20 -18 0
257 254 -15 0
257 -254 15 0
-257 254 15 0
-257 -254 -15 0
258 18 -16 0
258 -18 16 0
-258 18 16 0
-258 -18 -16 0
-259 254 0
-259 16 0
-259 15 -18 0
-259 -15 18 0
259 -254 15 18 -16 0
259 -254 -15 -18 -16 0
260 257 -13 0
260 -257 13 0
-260 257 13 0
-260 -257 -13 0
261 16 -14 0
261 -16 14 0
-261 16 14 0
-261 -16 -14 0
-262 257 0
-262 14 0
-262 13 -16 0
-262 -13 16 0
262 -257 13 16 -14 0
262 -257 -13 -16 -14 0
263 260 -11 0
263 -260 11 0
-263 260 11 0
-263 -260 -11 0
264 14 -12 0
264 -14 12 0
-264 14 12 0
-264 -14 -12 0
-265 260 0
-265 12 0
-265 11 -14 0
-265 -11 14 0
265 -260 11 14 -12 0
265 -260 -11 -14 -12 0
266 263 -9 0
266 -263 9 0
-266 263 9 0
-266 -263 -9 0
267 12 -10 0
267 -12 10 0
-267 12 10 0
-267 -12 -10 0
-268 263 0
-268 10 0
-268 9 -12 0
-268 -9 12 0
268 -263 9 12 -10 0
268 -263 -9 -12 -10 0
269 266 -7 0
269 -266 7 0
-269 266 7 0
-269 -266 -7 0
270 10 -8 0
270 -10 8 0
-270 10 8 0
-270 -10 -8 0
-271 266 0
-271 8 0
-271 7 -10 0
-271 -7 10 0
271 -266 7 10 -8 0
271 -266 -7 -10 -8 0
272 269 -5 0
272 -269 5 0
-272 269 5 0
-272 -269 -5 0
273 8 -6 0
273 -8 6 0
-273 8 6 0
-273 -8 -6 0
-274 269 0
-274 6 0
-274 5 -8 0
-274 -5 8 0
274 -269 5 8 -6 0
274 -269 -5 -8 -6 0
275 272 -3 0
275 -272 3 0
-275 272 3 0
-275 -272 -3 0
276 6 -4 0
276 -6 4 0
-276 6 4 0
-276 -6 -4 0
-277 272 0
-277 4 0
-277 3 -6 0
-277 -3 6 0
277 -272 3 6 -4 0
277 -272 -3 -6 -4 0
278 275 -1 0
278 -275 1 0
-278 275 1 0
-278 -275 -1 0
279 4 -2 0
279 -4 2 0
-279 4 2 0
-279 -4 -2 0
-280 275 0
-280 2 0
-280 1 -4 0
-280 -1 4 0
280 -275 1 4 -2 0
280 -275 -1 -4 -2 0
-278 0
-275 0
-279 0
-272 0
-276 0
-269 0
-273 0
-266 0
-270 0
-263 0
-267 0
-260 0
-264 0
-257 0
-261 0
-254 0
-258 0
-251 0
-255 0
-248 0
-252 0
-245 0
-249 0
-242 0
-246 0
-239 0
-243 0
-236 0
-240 0
-233 0
-237 0
-230 0
-234 0
-227 0
-231 0
-224 0
-228 0
-221 0
-225 0
-218 0
-222 0
-215 0
-219 0
-212 0
-216 0
-209 0
-213 0
-206 0
-210 0
-203 0
-207 0
-200 0
-204 0
-197 0
-201 0
-194 0
-198 0
-191 0
-195 0
-188 0
-192 0
-185 0
-189 0
-182 0
-186 0
-179 0
-183 0
-176 0
-180 0
-173 0
-177 0
-170 0
-174 0
-167 0
-171 0
-164 0
-168 0
-161 0
-165 0
-158 0
-162 0
-155 0
-159 0
-152 0
-156 0
-149 0
-153 0
-146 0
-150 0
-143 0
-147 0
-140 0
-144 0
-137 0
-141 0
-134 0
-138 0
-131 0
-135 0
-128 0
-132 0
-125 0
-129 0
-122 0
-126 0
-119 0
-123 0
-113 0
-120 0
